
******************************************************************************
This program contains Ipopt, a library for large-scale nonlinear optimization.
 Ipopt is released as open source code under the Eclipse Public License (EPL).
         For more information visit http://projects.coin-or.org/Ipopt
******************************************************************************

This is Ipopt version 3.12.6, running with linear solver ma57.

Number of nonzeros in equality constraint Jacobian...:    13421
Number of nonzeros in inequality constraint Jacobian.:     2982
Number of nonzeros in Lagrangian Hessian.............:      357

Total number of variables............................:     1515
                     variables with only lower bounds:        0
                variables with lower and upper bounds:      595
                     variables with only upper bounds:        0
Total number of equality constraints.................:     1065
Total number of inequality constraints...............:     1286
        inequality constraints with only lower bounds:        0
   inequality constraints with lower and upper bounds:        0
        inequality constraints with only upper bounds:     1286

iter    objective    inf_pr   inf_du lg(mu)  ||d||  lg(rg) alpha_du alpha_pr  ls
   0 -5.1478213e+00 1.67e+03 1.00e+02  -1.0 0.00e+00    -  0.00e+00 0.00e+00   0
Reallocating memory for MA57: lfact (217072)
   1 -2.4072031e+03 1.67e+03 1.00e+02  -1.0 1.70e+03    -  4.52e-04 8.02e-05f  1
   2 -3.1819749e+04 1.67e+03 9.99e+01  -1.0 1.71e+03    -  5.57e-04 9.82e-04f  1
   3 -1.2386066e+05 1.66e+03 9.96e+01  -1.0 1.71e+03    -  1.29e-03 3.08e-03f  1
   4 -2.6438204e+05 1.65e+03 9.91e+01  -1.0 1.71e+03    -  2.29e-03 4.74e-03f  1
   5 -5.6383100e+05 1.64e+03 9.81e+01  -1.0 1.70e+03    -  6.31e-03 1.02e-02f  1
   6 -1.1107220e+06 1.61e+03 9.62e+01  -1.0 1.68e+03    -  1.44e-02 1.92e-02f  1
   7 -2.7233857e+06 1.51e+03 9.06e+01  -1.0 1.64e+03    -  7.38e-03 5.99e-02f  1
   8 -3.1326413e+06 1.48e+03 8.90e+01  -1.0 1.54e+03    -  1.53e-02 1.69e-02f  1
   9 -3.3224965e+06 1.47e+03 8.83e+01  -1.0 1.51e+03    -  7.45e-03 8.07e-03f  1
iter    objective    inf_pr   inf_du lg(mu)  ||d||  lg(rg) alpha_du alpha_pr  ls
  10 -3.5616045e+06 1.46e+03 8.74e+01  -1.0 1.49e+03    -  4.41e-03 1.03e-02f  1
  11 -4.5405888e+06 1.39e+03 8.36e+01  -1.0 1.48e+03    -  6.75e-03 4.39e-02f  1
  12 -4.7658114e+06 1.38e+03 8.27e+01  -1.0 1.42e+03    -  8.77e-03 1.09e-02f  1
  13 -4.8972137e+06 1.37e+03 8.22e+01  -1.0 1.36e+03    -  3.23e-03 6.54e-03f  1
  14 -4.9652760e+06 1.36e+03 8.19e+01  -1.0 1.39e+03    -  9.15e-03 3.39e-03f  1
  15 -5.1439563e+06 1.35e+03 8.11e+01  -1.0 1.34e+03    -  1.97e-03 9.09e-03f  1
  16 -5.1778042e+06 1.35e+03 8.10e+01  -1.0 1.37e+03    -  1.00e-02 1.73e-03f  1
  17 -5.4124725e+06 1.33e+03 8.00e+01  -1.0 1.32e+03    -  1.87e-03 1.22e-02f  1
  18 -5.4359713e+06 1.33e+03 7.99e+01  -1.0 1.35e+03    -  1.11e-02 1.24e-03f  1
  19 -5.7583190e+06 1.31e+03 7.85e+01  -1.0 1.31e+03    -  2.24e-03 1.73e-02f  1
iter    objective    inf_pr   inf_du lg(mu)  ||d||  lg(rg) alpha_du alpha_pr  ls
  20 -5.7782521e+06 1.31e+03 7.84e+01  -1.0 1.32e+03    -  1.29e-02 1.09e-03f  1
  21 -6.2546413e+06 1.27e+03 7.64e+01  -1.0 1.28e+03    -  3.32e-03 2.66e-02f  1
  22 -6.2754962e+06 1.27e+03 7.63e+01  -1.0 1.28e+03    -  1.65e-02 1.21e-03f  1
  23 -7.0650789e+06 1.21e+03 7.27e+01  -1.0 1.25e+03    -  7.52e-03 4.72e-02f  1
  24 -7.0960790e+06 1.21e+03 7.25e+01  -1.0 1.21e+03    -  2.46e-02 1.98e-03f  1
  25 -7.9799833e+06 1.14e+03 6.83e+01  -1.0 1.18e+03    -  3.19e-02 5.86e-02f  1
  26 -8.3696973e+06 1.11e+03 6.63e+01  -1.0 1.10e+03    -  2.58e-02 2.87e-02f  1
  27 -8.5288588e+06 1.09e+03 6.55e+01  -1.0 1.07e+03    -  1.70e-02 1.24e-02f  1
  28 -8.8018366e+06 1.07e+03 6.41e+01  -1.0 1.06e+03    -  1.27e-02 2.19e-02f  1
  29 -9.0892177e+06 1.04e+03 6.26e+01  -1.0 1.02e+03    -  1.45e-02 2.41e-02f  1
iter    objective    inf_pr   inf_du lg(mu)  ||d||  lg(rg) alpha_du alpha_pr  ls
  30 -9.4619308e+06 1.01e+03 6.05e+01  -1.0 9.71e+02    -  2.18e-02 3.30e-02f  1
  31 -9.5696252e+06 9.97e+02 5.99e+01  -1.0 9.37e+02    -  5.52e-03 1.01e-02f  1
  32 -9.6812324e+06 9.87e+02 5.92e+01  -1.0 9.98e+02    -  5.36e-02 1.06e-02f  1
  33 -1.0760175e+07 8.79e+02 5.28e+01  -1.0 9.95e+02    -  1.21e-02 1.09e-01f  1
  34 -1.1456268e+07 8.02e+02 4.82e+01  -1.0 8.95e+02    -  9.64e-02 8.75e-02f  1
  35 -1.2001495e+07 7.36e+02 4.42e+01  -1.0 8.25e+02    -  2.43e-02 8.18e-02f  1
  36 -1.2252142e+07 7.04e+02 4.23e+01  -1.0 7.58e+02    -  4.64e-02 4.37e-02f  1
  37 -1.2560555e+07 6.63e+02 3.98e+01  -1.0 7.25e+02    -  4.80e-02 5.90e-02f  1
  38 -1.2852825e+07 6.21e+02 3.73e+01  -1.0 6.82e+02    -  7.94e-02 6.30e-02f  1
  39 -1.3217808e+07 5.65e+02 3.39e+01  -1.0 6.39e+02    -  1.16e-01 9.06e-02f  1
iter    objective    inf_pr   inf_du lg(mu)  ||d||  lg(rg) alpha_du alpha_pr  ls
  40 -1.3775843e+07 4.67e+02 2.80e+01  -1.0 5.92e+02    -  1.27e-01 1.74e-01f  1
  41 -1.4105139e+07 3.98e+02 2.39e+01  -1.0 5.05e+02    -  1.72e-01 1.46e-01f  1
  42 -1.4464896e+07 3.08e+02 1.85e+01  -1.0 4.44e+02    -  5.62e-02 2.26e-01f  1
  43 -1.4704614e+07 2.31e+02 1.39e+01  -1.0 3.44e+02    -  1.51e-01 2.50e-01f  1
  44 -1.4961469e+07 1.01e+02 1.33e+01  -1.0 2.81e+02    -  1.18e-01 5.65e-01f  1
  45 -1.5010324e+07 5.13e+01 9.93e+00  -1.0 1.41e+02    -  2.82e-01 4.90e-01f  1
  46 -1.5030551e+07 8.43e+00 1.83e+01  -1.0 7.85e+01    -  2.70e-01 8.36e-01f  1
  47 -1.5031227e+07 6.48e+00 1.24e+01  -1.0 2.67e+01    -  2.80e-01 2.32e-01f  1
  48 -1.5032488e+07 2.21e+00 1.23e+01  -1.0 2.68e+01    -  2.77e-01 6.59e-01f  1
  49 -1.5032731e+07 1.47e+00 1.32e+01  -1.0 1.64e+01    -  1.90e-01 3.36e-01f  1
iter    objective    inf_pr   inf_du lg(mu)  ||d||  lg(rg) alpha_du alpha_pr  ls
  50 -1.5033000e+07 5.67e-01 4.25e+01  -1.0 1.31e+01    -  1.79e-01 6.14e-01f  1
  51 -1.5033049e+07 3.96e-01 9.48e+01  -1.0 1.14e+01    -  8.66e-01 3.02e-01f  1
  52 -1.5033110e+07 1.48e-01 3.72e+01  -1.0 1.10e+01    -  6.31e-01 6.26e-01f  1
  53 -1.5033118e+07 1.06e-01 3.61e+02  -1.0 5.91e+00    -  6.90e-01 2.87e-01f  2
  54 -1.5033130e+07 6.16e-02 1.87e+02  -1.0 1.36e+01    -  3.96e-01 4.16e-01f  2
  55 -1.5033137e+07 3.82e-03 1.15e+02  -1.0 6.54e+00    -  9.90e-01 9.38e-01h  1
  56 -1.5033137e+07 3.09e-03 2.51e+04  -1.0 1.54e+00    -  9.90e-01 1.91e-01h  1
  57 -1.5033136e+07 1.02e-03 2.00e+04  -1.0 1.27e+00    -  9.93e-01 6.71e-01h  1
  58 -1.5033136e+07 3.89e-04 4.40e+04  -1.0 4.21e-01    -  1.00e+00 6.17e-01h  1
  59 -1.5033136e+07 9.77e-05 5.41e+04  -1.0 1.61e-01    -  1.00e+00 7.49e-01h  1
iter    objective    inf_pr   inf_du lg(mu)  ||d||  lg(rg) alpha_du alpha_pr  ls
  60 -1.5033136e+07 9.48e-05 2.94e+05  -1.0 4.04e-02    -  1.00e+00 2.93e-02f  6
  61 -1.5033136e+07 1.45e-10 1.00e-06  -1.0 3.92e-02    -  1.00e+00 1.00e+00h  1
  62 -1.5033492e+07 1.80e-08 1.58e+03  -3.8 6.26e+00    -  8.62e-01 8.60e-01f  1
  63 -1.5033527e+07 7.81e-09 1.05e+04  -3.8 9.71e+00    -  6.72e-01 5.67e-01f  1
Reallocating memory for MA57: lfact (229186)
  64 -1.5033546e+07 2.64e-09 4.53e+03  -3.8 1.11e+01    -  3.97e-01 6.62e-01f  1
  65 -1.5033554e+07 4.87e-10 3.57e+03  -3.8 6.51e+00    -  6.66e-01 8.15e-01f  1
  66 -1.5033556e+07 2.88e-11 6.08e+02  -3.8 1.55e+00    -  8.76e-01 9.41e-01f  1
  67 -1.5033557e+07 1.36e-12 1.50e-09  -3.8 5.54e-01    -  1.00e+00 1.00e+00f  1
  68 -1.5033557e+07 1.36e-12 2.31e+01  -5.7 3.42e-01    -  9.76e-01 9.54e-01f  1
Reallocating memory for MA57: lfact (255578)
  69 -1.5033557e+07 1.02e-12 4.44e+00  -5.7 6.00e-02    -  1.00e+00 9.09e-01f  1
iter    objective    inf_pr   inf_du lg(mu)  ||d||  lg(rg) alpha_du alpha_pr  ls
  70 -1.5033557e+07 1.28e-12 6.38e-01  -5.7 1.38e-02    -  1.00e+00 8.61e-01f  1
  71 -1.5033557e+07 1.01e-12 1.84e-11  -5.7 5.61e-03    -  1.00e+00 1.00e+00f  1
  72 -1.5033557e+07 1.09e-12 2.02e+00  -8.6 5.98e-03    -  8.75e-01 7.25e-01f  1
  73 -1.5033557e+07 9.55e-13 8.01e-01  -8.6 2.61e-03    -  5.87e-01 6.03e-01f  1
  74 -1.5033557e+07 1.12e-11 1.64e-01  -8.6 1.61e-03    -  5.11e-01 7.97e-01f  1
  75 -1.5033557e+07 1.64e-12 5.99e-02  -8.6 8.28e-04    -  7.25e-02 1.00e+00f  1
  76 -1.5033557e+07 8.66e-13 1.14e-13  -8.6 2.98e-04    -  1.00e+00 1.00e+00h  1
Reallocating memory for MA57: lfact (286194)
  77 -1.5033557e+07 9.73e-13 1.71e-13  -8.6 3.02e-04    -  1.00e+00 1.00e+00h  1

Number of Iterations....: 77

                                   (scaled)                 (unscaled)
Objective...............:  -2.0879940699712937e+06   -1.5033557303793313e+07
Dual infeasibility......:   1.7053025658242404e-13    1.2278178473934530e-12
Constraint violation....:   8.0646600508771371e-13    9.7344354799133725e-13
Complementarity.........:   8.8473072270591607e-09    6.3700612034825949e-08
Overall NLP error.......:   8.8473072270591607e-09    6.3700612034825949e-08


Number of objective function evaluations             = 85
Number of objective gradient evaluations             = 78
Number of equality constraint evaluations            = 85
Number of inequality constraint evaluations          = 85
Number of equality constraint Jacobian evaluations   = 78
Number of inequality constraint Jacobian evaluations = 78
Number of Lagrangian Hessian evaluations             = 77
Total CPU secs in IPOPT (w/o function evaluations)   =      0.747
Total CPU secs in NLP function evaluations           =      0.067

EXIT: Optimal Solution Found.
Note: The following floating-point exceptions are signalling: IEEE_OVERFLOW_FLAG IEEE_UNDERFLOW_FLAG IEEE_DENORMAL

************************ CUTEst statistics ************************


 Package used            :  IPOPT
 Problem                 :  MPC7      
 # variables             =            1530
 # constraints           =            2351
 # objective functions   =        0.1640000E+03
 # objective gradients   =        0.7900000E+02
 # objective Hessians    =        0.7800000E+02
 # Hessian-vector prdct  =        0.0000000E+00
 # constraints functions =        0.1650000E+03
 # constraints gradients =        0.8000000E+02
 # constraints Hessians  =        0.7800000E+02
 Exit code               =               0
 Final f                 =  -0.1503356E+08
 Set up time             =            0.05 seconds
 Solve time              =            1.01 seconds


******************************************************************

System Time =       0.7990000248 s.
